(declare-const x0 Real)
(assert (<= 340.0 x0))
(declare-const x1 Real)
(assert (<= 340.0 x1))
(declare-const x2 Real)
(assert (<= 0.0 x2))
(declare-const x3 Real)
(assert (<= (- 1000.0) x3))
(declare-const x4 Real)
(assert (<= 0.0 x4))
(declare-const x5 Real)
(assert (<= 0.0 x5))
(declare-const x6 Real)
(assert (<= 0.0 x6))
(declare-const x7 Real)
(assert (<= 0.0 x7))
(declare-const x8 Real)
(assert (<= 0.0 x8))

(assert (= (+ (* 1.0 x4) (* 1.0 x5) (+ (* 0.007629 (* (* x0 x1) (cos (- 1.484770 x2)))) (* (- 0.000657) (^ x0 2.0)))) 300.0))
(assert (= (+ (* 1.0 x6) (* 1.0 x7) (* 1.0 x8) (+ (* 0.007629 (* (* x0 x1) (cos (+ 1.484770 x2)))) (* (- 0.000657) (^ x1 2.0)))) 0.0))
(assert (= (+ (* 1.0 x3) (+ (* 0.007629 (* (* x0 x1) (sin (+ 1.484770 x2)))) (* (- 0.006896) (^ x1 2.0)))) 0.0))
(assert (= (+ (* (- 0.007629) (* (* x0 x1) (sin (- 1.484770 x2)))) (* 0.006896 (^ x0 2.0))) (- 200.0)))

(minimize
	(+ (* 30.0 x4) (* 31.0 x5) (* 28.0 x6) (* 29.0 x7) (* 30.0 x8))
)
(check-sat)
(get-objectives)
(exit)

